(declare-fun e () String)
(declare-fun c () String)
(declare-fun b () String)
(declare-fun d () String)
(declare-fun f () String)
(assert (= "f" (str.++ "d" d c)))
(assert (= "ab" e))
(assert (= "d" (str.++ "c" b f "e" e "c")))

(check-sat)
